RobustCbss/GLKH-1.1/TMP/mtspf.pid3971.atsp
NAME : mtspf.pid3971.gtsp
TYPE : ATSP
DIMENSION : 45
EDGE_WEIGHT_TYPE : EXPLICIT
EDGE_WEIGHT_FORMAT : FULL_MATRIX
EDGE_WEIGHT_SECTION
999999 5368709 5368709 5368709 5368709 5368736 5368737 5368736 5368735 5368737 5368738 5368739 5368738 5368717 5368718 5368717 5368716 5368719 5368720 5368721 5368720 5368714 5368715 5368716 5368715 5368739 5368738 5368739 5368740 5368747 5368746 5368747 5368748 5368757 5368758 5368759 5368758 5368740 5368741 5368742 5368741 5368737 5368736 5368737 5368738 
5368709 999999 5368709 5368709 5368709 5368753 5368754 5368753 5368752 5368732 5368733 5368732 5368731 5368766 5368765 5368764 5368765 5368752 5368751 5368750 5368751 5368761 5368760 5368759 5368760 5368740 5368739 5368738 5368739 5368726 5368725 5368726 5368727 5368756 5368757 5368756 5368755 5368735 5368736 5368737 5368736 5368738 5368737 5368736 5368737 
5368709 5368709 999999 5368709 5368709 5368744 5368745 5368744 5368743 5368729 5368730 5368729 5368728 5368763 5368762 5368761 5368762 5368749 5368750 5368749 5368748 5368758 5368757 5368756 5368757 5368739 5368738 5368737 5368738 5368727 5368726 5368727 5368728 5368745 5368746 5368745 5368744 5368728 5368729 5368730 5368729 5368737 5368736 5368735 5368736 
5368709 5368709 5368709 999999 5368709 5368750 5368751 5368750 5368749 5368735 5368736 5368735 5368734 5368769 5368768 5368767 5368768 5368755 5368754 5368753 5368754 5368764 5368763 5368762 5368763 5368743 5368742 5368741 5368742 5368729 5368728 5368729 5368730 5368745 5368746 5368745 5368744 5368734 5368735 5368736 5368735 5368741 5368740 5368739 5368740 
5368709 5368709 5368709 5368709 999999 5368748 5368749 5368748 5368747 5368729 5368730 5368729 5368728 5368755 5368754 5368753 5368754 5368741 5368740 5368739 5368740 5368748 5368747 5368746 5368747 5368725 5368724 5368723 5368724 5368719 5368718 5368719 5368720 5368759 5368760 5368759 5368758 5368732 5368733 5368734 5368733 5368723 5368722 5368721 5368722 
5368709 5368709 5368709 5368709 5368709 999999 0 10737418 10737418 5368731 5368730 5368729 5368730 5368739 5368738 5368737 5368738 5368731 5368730 5368729 5368730 5368732 5368731 5368730 5368731 5368749 5368748 5368747 5368748 5368745 5368744 5368743 5368744 5368733 5368734 5368735 5368734 5368730 5368731 5368732 5368731 5368747 5368746 5368745 5368746 
5368709 5368709 5368709 5368709 5368709 10737418 999999 0 10737418 5368732 5368731 5368730 5368731 5368740 5368739 5368738 5368739 5368732 5368731 5368730 5368731 5368733 5368732 5368731 5368732 5368750 5368749 5368748 5368749 5368746 5368745 5368744 5368745 5368734 5368735 5368736 5368735 5368731 5368732 5368733 5368732 5368748 5368747 5368746 5368747 
5368709 5368709 5368709 5368709 5368709 10737418 10737418 999999 0 5368733 5368732 5368731 5368732 5368741 5368740 5368739 5368740 5368733 5368732 5368731 5368732 5368734 5368733 5368732 5368733 5368751 5368750 5368749 5368750 5368747 5368746 5368745 5368746 5368733 5368734 5368735 5368734 5368732 5368733 5368734 5368733 5368749 5368748 5368747 5368748 
5368709 5368709 5368709 5368709 5368709 0 10737418 10737418 999999 5368732 5368731 5368730 5368731 5368740 5368739 5368738 5368739 5368732 5368731 5368730 5368731 5368733 5368732 5368731 5368732 5368750 5368749 5368748 5368749 5368746 5368745 5368744 5368745 5368732 5368733 5368734 5368733 5368731 5368732 5368733 5368732 5368748 5368747 5368746 5368747 
5368709 5368709 5368709 5368709 5368709 5368731 5368732 5368731 5368730 999999 0 10737418 10737418 5368746 5368745 5368744 5368745 5368732 5368731 5368730 5368731 5368741 5368740 5368739 5368740 5368730 5368729 5368728 5368729 5368724 5368723 5368724 5368725 5368742 5368743 5368744 5368743 5368713 5368714 5368715 5368714 5368728 5368727 5368726 5368727 
5368709 5368709 5368709 5368709 5368709 5368732 5368733 5368732 5368731 10737418 999999 0 10737418 5368745 5368744 5368743 5368744 5368731 5368730 5368729 5368730 5368740 5368739 5368738 5368739 5368731 5368730 5368729 5368730 5368725 5368724 5368723 5368724 5368743 5368744 5368745 5368744 5368714 5368715 5368716 5368715 5368729 5368728 5368727 5368728 
5368709 5368709 5368709 5368709 5368709 5368731 5368732 5368731 5368730 10737418 10737418 999999 0 5368746 5368745 5368744 5368745 5368732 5368731 5368730 5368731 5368741 5368740 5368739 5368740 5368732 5368731 5368730 5368731 5368726 5368725 5368724 5368725 5368742 5368743 5368744 5368743 5368713 5368714 5368715 5368714 5368730 5368729 5368728 5368729 
5368709 5368709 5368709 5368709 5368709 5368730 5368731 5368730 5368729 0 10737418 10737418 999999 5368747 5368746 5368745 5368746 5368733 5368732 5368731 5368732 5368742 5368741 5368740 5368741 5368731 5368730 5368729 5368730 5368725 5368724 5368725 5368726 5368741 5368742 5368743 5368742 5368712 5368713 5368714 5368713 5368729 5368728 5368727 5368728 
5368709 5368709 5368709 5368709 5368709 5368739 5368740 5368739 5368738 5368744 5368745 5368746 5368745 999999 0 10737418 10737418 5368724 5368725 5368726 5368725 5368717 5368716 5368717 5368718 5368746 5368745 5368746 5368747 5368754 5368753 5368754 5368755 5368760 5368761 5368762 5368761 5368747 5368748 5368749 5368748 5368744 5368743 5368744 5368745 
5368709 5368709 5368709 5368709 5368709 5368740 5368741 5368740 5368739 5368745 5368746 5368747 5368746 10737418 999999 0 10737418 5368725 5368726 5368727 5368726 5368718 5368717 5368718 5368719 5368747 5368746 5368747 5368748 5368755 5368754 5368755 5368756 5368759 5368760 5368761 5368760 5368748 5368749 5368750 5368749 5368745 5368744 5368745 5368746 
5368709 5368709 5368709 5368709 5368709 5368739 5368740 5368739 5368738 5368744 5368745 5368746 5368745 10737418 10737418 999999 0 5368726 5368727 5368728 5368727 5368717 5368716 5368717 5368718 5368746 5368745 5368746 5368747 5368754 5368753 5368754 5368755 5368758 5368759 5368760 5368759 5368747 5368748 5368749 5368748 5368744 5368743 5368744 5368745 
5368709 5368709 5368709 5368709 5368709 5368738 5368739 5368738 5368737 5368743 5368744 5368745 5368744 0 10737418 10737418 999999 5368725 5368726 5368727 5368726 5368716 5368715 5368716 5368717 5368745 5368744 5368745 5368746 5368753 5368752 5368753 5368754 5368759 5368760 5368761 5368760 5368746 5368747 5368748 5368747 5368743 5368742 5368743 5368744 
5368709 5368709 5368709 5368709 5368709 5368731 5368732 5368731 5368730 5368730 5368731 5368732 5368731 5368726 5368727 5368726 5368725 999999 0 10737418 10737418 5368721 5368722 5368721 5368720 5368732 5368731 5368730 5368731 5368740 5368739 5368740 5368741 5368748 5368749 5368750 5368749 5368733 5368734 5368735 5368734 5368728 5368727 5368728 5368729 
5368709 5368709 5368709 5368709 5368709 5368732 5368733 5368732 5368731 5368731 5368732 5368733 5368732 5368725 5368726 5368725 5368724 10737418 999999 0 10737418 5368720 5368721 5368720 5368719 5368733 5368732 5368731 5368732 5368741 5368740 5368741 5368742 5368749 5368750 5368751 5368750 5368734 5368735 5368736 5368735 5368729 5368728 5368729 5368730 
5368709 5368709 5368709 5368709 5368709 5368731 5368732 5368731 5368730 5368730 5368731 5368732 5368731 5368726 5368727 5368726 5368725 10737418 10737418 999999 0 5368721 5368722 5368721 5368720 5368734 5368733 5368732 5368733 5368740 5368739 5368740 5368741 5368748 5368749 5368750 5368749 5368733 5368734 5368735 5368734 5368730 5368729 5368730 5368731 
5368709 5368709 5368709 5368709 5368709 5368730 5368731 5368730 5368729 5368729 5368730 5368731 5368730 5368727 5368728 5368727 5368726 0 10737418 10737418 999999 5368722 5368721 5368720 5368721 5368733 5368732 5368731 5368732 5368739 5368738 5368739 5368740 5368747 5368748 5368749 5368748 5368732 5368733 5368734 5368733 5368729 5368728 5368729 5368730 
5368709 5368709 5368709 5368709 5368709 5368732 5368733 5368732 5368731 5368739 5368740 5368741 5368740 5368719 5368718 5368717 5368718 5368719 5368720 5368721 5368720 999999 0 10737418 10737418 5368743 5368742 5368741 5368742 5368749 5368748 5368749 5368750 5368753 5368754 5368755 5368754 5368742 5368743 5368744 5368743 5368739 5368738 5368739 5368740 
5368709 5368709 5368709 5368709 5368709 5368733 5368734 5368733 5368732 5368740 5368741 5368742 5368741 5368718 5368717 5368716 5368717 5368720 5368721 5368722 5368721 10737418 999999 0 10737418 5368742 5368741 5368742 5368743 5368750 5368749 5368750 5368751 5368754 5368755 5368756 5368755 5368743 5368744 5368745 5368744 5368740 5368739 5368740 5368741 
5368709 5368709 5368709 5368709 5368709 5368732 5368733 5368732 5368731 5368739 5368740 5368741 5368740 5368717 5368716 5368715 5368716 5368721 5368722 5368721 5368722 10737418 10737418 999999 0 5368743 5368742 5368741 5368742 5368749 5368748 5368749 5368750 5368753 5368754 5368755 5368754 5368742 5368743 5368744 5368743 5368739 5368738 5368739 5368740 
5368709 5368709 5368709 5368709 5368709 5368731 5368732 5368731 5368730 5368738 5368739 5368740 5368739 5368718 5368717 5368716 5368717 5368720 5368721 5368720 5368721 0 10737418 10737418 999999 5368742 5368741 5368740 5368741 5368748 5368747 5368748 5368749 5368752 5368753 5368754 5368753 5368741 5368742 5368743 5368742 5368738 5368737 5368738 5368739 
5368709 5368709 5368709 5368709 5368709 5368749 5368750 5368749 5368748 5368730 5368731 5368730 5368729 5368748 5368747 5368746 5368747 5368732 5368733 5368732 5368731 5368743 5368742 5368741 5368742 999999 0 10737418 10737418 5368726 5368725 5368726 5368727 5368760 5368761 5368760 5368759 5368733 5368734 5368735 5368734 5368712 5368713 5368714 5368713 
5368709 5368709 5368709 5368709 5368709 5368750 5368751 5368750 5368749 5368731 5368732 5368731 5368730 5368747 5368746 5368745 5368746 5368733 5368734 5368733 5368732 5368742 5368743 5368742 5368743 10737418 999999 0 10737418 5368727 5368726 5368727 5368728 5368761 5368762 5368761 5368760 5368734 5368735 5368736 5368735 5368713 5368714 5368715 5368714 
5368709 5368709 5368709 5368709 5368709 5368749 5368750 5368749 5368748 5368730 5368731 5368730 5368729 5368746 5368745 5368744 5368745 5368732 5368733 5368732 5368731 5368741 5368742 5368741 5368742 10737418 10737418 999999 0 5368726 5368725 5368726 5368727 5368760 5368761 5368760 5368759 5368733 5368734 5368735 5368734 5368712 5368713 5368714 5368713 
5368709 5368709 5368709 5368709 5368709 5368748 5368749 5368748 5368747 5368729 5368730 5368729 5368728 5368747 5368746 5368745 5368746 5368731 5368732 5368731 5368730 5368742 5368741 5368740 5368741 0 10737418 10737418 999999 5368725 5368724 5368725 5368726 5368759 5368760 5368759 5368758 5368732 5368733 5368734 5368733 5368711 5368712 5368713 5368712 
5368709 5368709 5368709 5368709 5368709 5368745 5368746 5368745 5368744 5368724 5368725 5368726 5368725 5368756 5368755 5368754 5368755 5368742 5368741 5368740 5368741 5368751 5368750 5368749 5368750 5368728 5368727 5368726 5368727 999999 0 10737418 10737418 5368754 5368755 5368754 5368753 5368727 5368728 5368729 5368728 5368726 5368725 5368724 5368725 
5368709 5368709 5368709 5368709 5368709 5368746 5368747 5368746 5368745 5368725 5368726 5368725 5368724 5368755 5368754 5368753 5368754 5368741 5368740 5368739 5368740 5368750 5368749 5368748 5368749 5368727 5368726 5368725 5368726 10737418 999999 0 10737418 5368755 5368756 5368755 5368754 5368728 5368729 5368730 5368729 5368725 5368724 5368723 5368724 
5368709 5368709 5368709 5368709 5368709 5368745 5368746 5368745 5368744 5368724 5368725 5368724 5368723 5368754 5368753 5368752 5368753 5368740 5368739 5368738 5368739 5368749 5368748 5368747 5368748 5368726 5368725 5368724 5368725 10737418 10737418 999999 0 5368754 5368755 5368754 5368753 5368727 5368728 5368729 5368728 5368724 5368723 5368722 5368723 
5368709 5368709 5368709 5368709 5368709 5368744 5368745 5368744 5368743 5368723 5368724 5368725 5368724 5368755 5368754 5368753 5368754 5368741 5368740 5368739 5368740 5368750 5368749 5368748 5368749 5368727 5368726 5368725 5368726 0 10737418 10737418 999999 5368753 5368754 5368753 5368752 5368726 5368727 5368728 5368727 5368725 5368724 5368723 5368724 
5368709 5368709 5368709 5368709 5368709 5368735 5368734 5368733 5368734 5368744 5368743 5368742 5368743 5368760 5368759 5368760 5368761 5368750 5368749 5368748 5368749 5368755 5368754 5368753 5368754 5368760 5368759 5368758 5368759 5368754 5368753 5368752 5368753 999999 0 10737418 10737418 5368743 5368744 5368745 5368744 5368758 5368757 5368756 5368757 
5368709 5368709 5368709 5368709 5368709 5368734 5368733 5368732 5368733 5368743 5368742 5368741 5368742 5368759 5368758 5368759 5368760 5368749 5368748 5368747 5368748 5368754 5368753 5368752 5368753 5368761 5368760 5368759 5368760 5368755 5368754 5368753 5368754 10737418 999999 0 10737418 5368742 5368743 5368744 5368743 5368759 5368758 5368757 5368758 
5368709 5368709 5368709 5368709 5368709 5368735 5368734 5368733 5368734 5368744 5368743 5368742 5368743 5368760 5368759 5368760 5368761 5368750 5368749 5368748 5368749 5368755 5368754 5368753 5368754 5368762 5368761 5368760 5368761 5368756 5368755 5368754 5368755 10737418 10737418 999999 0 5368743 5368744 5368745 5368744 5368760 5368759 5368758 5368759 
5368709 5368709 5368709 5368709 5368709 5368736 5368735 5368734 5368735 5368745 5368744 5368743 5368744 5368761 5368760 5368761 5368762 5368751 5368750 5368749 5368750 5368756 5368755 5368754 5368755 5368761 5368760 5368759 5368760 5368755 5368754 5368753 5368754 0 10737418 10737418 999999 5368744 5368745 5368746 5368745 5368759 5368758 5368757 5368758 
5368709 5368709 5368709 5368709 5368709 5368732 5368733 5368732 5368731 5368715 5368714 5368713 5368714 5368749 5368748 5368747 5368748 5368735 5368734 5368733 5368734 5368744 5368743 5368742 5368743 5368735 5368734 5368733 5368734 5368729 5368728 5368727 5368728 5368743 5368744 5368745 5368744 999999 0 10737418 10737418 5368733 5368732 5368731 5368732 
5368709 5368709 5368709 5368709 5368709 5368731 5368732 5368731 5368730 5368714 5368713 5368712 5368713 5368748 5368747 5368746 5368747 5368734 5368733 5368732 5368733 5368743 5368742 5368741 5368742 5368734 5368733 5368732 5368733 5368728 5368727 5368726 5368727 5368742 5368743 5368744 5368743 10737418 999999 0 10737418 5368732 5368731 5368730 5368731 
5368709 5368709 5368709 5368709 5368709 5368732 5368733 5368732 5368731 5368715 5368714 5368713 5368714 5368749 5368748 5368747 5368748 5368735 5368734 5368733 5368734 5368744 5368743 5368742 5368743 5368735 5368734 5368733 5368734 5368729 5368728 5368727 5368728 5368743 5368744 5368745 5368744 10737418 10737418 999999 0 5368733 5368732 5368731 5368732 
5368709 5368709 5368709 5368709 5368709 5368733 5368734 5368733 5368732 5368716 5368715 5368714 5368715 5368750 5368749 5368748 5368749 5368736 5368735 5368734 5368735 5368745 5368744 5368743 5368744 5368736 5368735 5368734 5368735 5368730 5368729 5368728 5368729 5368744 5368745 5368746 5368745 0 10737418 10737418 999999 5368734 5368733 5368732 5368733 
5368709 5368709 5368709 5368709 5368709 5368747 5368748 5368747 5368746 5368728 5368729 5368728 5368727 5368746 5368745 5368744 5368745 5368730 5368731 5368730 5368729 5368741 5368740 5368739 5368740 5368714 5368713 5368712 5368713 5368724 5368723 5368724 5368725 5368758 5368759 5368758 5368757 5368731 5368732 5368733 5368732 999999 0 10737418 10737418 
5368709 5368709 5368709 5368709 5368709 5368748 5368749 5368748 5368747 5368729 5368730 5368729 5368728 5368745 5368744 5368743 5368744 5368729 5368730 5368729 5368728 5368740 5368739 5368738 5368739 5368713 5368712 5368711 5368712 5368725 5368724 5368725 5368726 5368759 5368760 5368759 5368758 5368732 5368733 5368734 5368733 10737418 999999 0 10737418 
5368709 5368709 5368709 5368709 5368709 5368747 5368748 5368747 5368746 5368728 5368729 5368728 5368727 5368744 5368743 5368742 5368743 5368728 5368729 5368728 5368727 5368739 5368738 5368737 5368738 5368714 5368713 5368712 5368713 5368724 5368723 5368724 5368725 5368758 5368759 5368758 5368757 5368731 5368732 5368733 5368732 10737418 10737418 999999 0 
5368709 5368709 5368709 5368709 5368709 5368746 5368747 5368746 5368745 5368727 5368728 5368727 5368726 5368745 5368744 5368743 5368744 5368729 5368730 5368729 5368728 5368740 5368739 5368738 5368739 5368715 5368714 5368713 5368714 5368723 5368722 5368723 5368724 5368757 5368758 5368757 5368756 5368730 5368731 5368732 5368731 0 10737418 10737418 999999 
EOF
