RobustCbss/GLKH-1.1/TMP/mtspf.pid3971.tour
NAME : mtspf.pid3971.gtsp.80530751.tour
COMMENT : Length = 80530751
COMMENT : Found by LKH [Keld Helsgaun] Sun Feb 23 11:31:19 2025
TYPE : TOUR
DIMENSION : 45
TOUR_SECTION
1
14
15
16
17
23
24
25
22
18
19
20
21
6
7
8
9
34
35
36
37
3
4
2
31
32
33
30
10
11
12
13
38
39
40
41
5
44
45
42
43
28
29
26
27
-1
EOF
